c CNF
c from Selman's wff generator
p cnf 140  1500
1.0 -67 18 0
1.0 -39 27 0
1.0 -11 1 0
1.0 -116 68 0
1.0 96 104 0
1.0 92 -102 0
1.0 -18 61 0
1.0 -50 -97 0
1.0 -114 12 0
1.0 -38 104 0
1.0 -105 -20 0
1.0 -88 30 0
1.0 -134 -23 0
1.0 124 101 0
1.0 21 -129 0
1.0 85 99 0
1.0 110 46 0
1.0 -10 55 0
1.0 -138 54 0
1.0 11 19 0
1.0 111 -105 0
1.0 18 93 0
1.0 23 91 0
1.0 -9 -111 0
1.0 -118 124 0
1.0 97 117 0
1.0 92 -58 0
1.0 -78 54 0
1.0 70 -13 0
1.0 -105 -66 0
1.0 16 133 0
1.0 -104 -30 0
1.0 -14 -49 0
1.0 -25 -4 0
1.0 -62 -1 0
1.0 55 -30 0
1.0 -42 101 0
1.0 -26 63 0
1.0 55 51 0
1.0 -80 -27 0
1.0 76 -73 0
1.0 -77 -43 0
1.0 -44 -24 0
1.0 -53 -37 0
1.0 -138 14 0
1.0 76 -97 0
1.0 7 -130 0
1.0 17 -107 0
1.0 40 -102 0
1.0 -5 129 0
1.0 12 110 0
1.0 7 88 0
1.0 101 122 0
1.0 78 -92 0
1.0 82 -35 0
1.0 1 69 0
1.0 31 102 0
1.0 -90 -130 0
1.0 100 -89 0
1.0 -36 -47 0
1.0 28 -137 0
1.0 89 60 0
1.0 -94 -80 0
1.0 -8 38 0
1.0 -140 -11 0
1.0 1 -17 0
1.0 106 78 0
1.0 -124 37 0
1.0 -34 -31 0
1.0 91 27 0
1.0 -106 -140 0
1.0 38 133 0
1.0 -4 86 0
1.0 -103 37 0
1.0 114 -30 0
1.0 -66 -68 0
1.0 -99 86 0
1.0 -112 -93 0
1.0 93 -91 0
1.0 83 -62 0
1.0 -8 -14 0
1.0 50 54 0
1.0 -83 108 0
1.0 -35 -90 0
1.0 35 49 0
1.0 -2 -134 0
1.0 -84 133 0
1.0 -54 111 0
1.0 124 63 0
1.0 116 69 0
1.0 36 -38 0
1.0 128 36 0
1.0 85 -106 0
1.0 100 112 0
1.0 -104 123 0
1.0 -93 -43 0
1.0 -105 -110 0
1.0 -38 -26 0
1.0 64 67 0
1.0 -102 68 0
1.0 -33 -102 0
1.0 73 31 0
1.0 13 -106 0
1.0 9 -133 0
1.0 102 -10 0
1.0 -35 -53 0
1.0 120 -76 0
1.0 -4 81 0
1.0 42 -118 0
1.0 8 65 0
1.0 -31 65 0
1.0 57 26 0
1.0 35 67 0
1.0 120 -90 0
1.0 26 36 0
1.0 116 26 0
1.0 -3 94 0
1.0 18 2 0
1.0 -67 -16 0
1.0 42 -100 0
1.0 26 20 0
1.0 -109 -34 0
1.0 69 2 0
1.0 28 88 0
1.0 41 54 0
1.0 -56 -72 0
1.0 -88 -54 0
1.0 14 107 0
1.0 126 -71 0
1.0 -104 7 0
1.0 -9 111 0
1.0 58 -139 0
1.0 53 -108 0
1.0 -39 -124 0
1.0 -38 55 0
1.0 -21 40 0
1.0 -110 -133 0
1.0 -140 49 0
1.0 20 -43 0
1.0 41 -111 0
1.0 78 -53 0
1.0 -37 -11 0
1.0 -65 -78 0
1.0 -118 -73 0
1.0 65 53 0
1.0 -101 -127 0
1.0 29 117 0
1.0 87 93 0
1.0 6 84 0
1.0 -94 103 0
1.0 -41 98 0
1.0 -30 -57 0
1.0 109 126 0
1.0 112 -92 0
1.0 68 106 0
1.0 59 92 0
1.0 -35 -38 0
1.0 1 80 0
1.0 38 111 0
1.0 27 -24 0
1.0 10 -42 0
1.0 -133 114 0
1.0 -80 -50 0
1.0 1 111 0
1.0 9 28 0
1.0 108 29 0
1.0 -140 110 0
1.0 134 95 0
1.0 -136 -87 0
1.0 61 -104 0
1.0 -13 121 0
1.0 91 -61 0
1.0 -89 71 0
1.0 99 -19 0
1.0 -129 -134 0
1.0 -88 -8 0
1.0 -94 107 0
1.0 70 -120 0
1.0 -100 13 0
1.0 73 3 0
1.0 -74 118 0
1.0 -137 -138 0
1.0 -131 -116 0
1.0 124 -90 0
1.0 -56 -95 0
1.0 74 106 0
1.0 -118 23 0
1.0 -26 -94 0
1.0 -72 9 0
1.0 6 -122 0
1.0 -98 -18 0
1.0 107 97 0
1.0 51 -109 0
1.0 74 75 0
1.0 -98 -101 0
1.0 -55 -34 0
1.0 43 73 0
1.0 54 106 0
1.0 -124 -119 0
1.0 -75 -109 0
1.0 -77 121 0
1.0 55 127 0
1.0 -88 24 0
1.0 -58 -77 0
1.0 9 41 0
1.0 -7 -52 0
1.0 -30 -25 0
1.0 -133 54 0
1.0 -34 -60 0
1.0 -47 -2 0
1.0 -25 -95 0
1.0 32 123 0
1.0 -24 50 0
1.0 102 -35 0
1.0 -59 100 0
1.0 -14 46 0
1.0 -106 60 0
1.0 61 -95 0
1.0 50 -1 0
1.0 -124 70 0
1.0 120 -82 0
1.0 -116 57 0
1.0 -16 29 0
1.0 -75 65 0
1.0 124 71 0
1.0 -25 -57 0
1.0 57 17 0
1.0 87 135 0
1.0 77 83 0
1.0 -139 81 0
1.0 110 31 0
1.0 -95 -120 0
1.0 -50 -136 0
1.0 52 -112 0
1.0 128 -24 0
1.0 19 -55 0
1.0 138 -10 0
1.0 90 93 0
1.0 -124 -54 0
1.0 33 -48 0
1.0 44 -139 0
1.0 110 -25 0
1.0 49 72 0
1.0 127 -34 0
1.0 -43 -29 0
1.0 122 -130 0
1.0 43 -16 0
1.0 63 -60 0
1.0 59 35 0
1.0 -60 -125 0
1.0 57 19 0
1.0 53 -55 0
1.0 -84 6 0
1.0 135 140 0
1.0 -15 -73 0
1.0 132 131 0
1.0 -25 -105 0
1.0 89 66 0
1.0 84 -85 0
1.0 -140 -74 0
1.0 79 -39 0
1.0 -38 36 0
1.0 -108 -83 0
1.0 74 -33 0
1.0 137 -90 0
1.0 -15 -93 0
1.0 -38 138 0
1.0 -72 45 0
1.0 -83 -126 0
1.0 22 -54 0
1.0 -137 22 0
1.0 55 100 0
1.0 -49 70 0
1.0 23 87 0
1.0 -85 115 0
1.0 19 -76 0
1.0 -61 -111 0
1.0 -25 113 0
1.0 -135 21 0
1.0 -121 118 0
1.0 -48 97 0
1.0 -44 -113 0
1.0 87 -86 0
1.0 21 -32 0
1.0 3 7 0
1.0 119 -96 0
1.0 117 -137 0
1.0 -115 122 0
1.0 -79 -77 0
1.0 -49 -81 0
1.0 -26 116 0
1.0 -7 26 0
1.0 32 12 0
1.0 -107 -82 0
1.0 79 5 0
1.0 -127 25 0
1.0 101 26 0
1.0 106 -17 0
1.0 132 -103 0
1.0 128 25 0
1.0 36 43 0
1.0 -124 13 0
1.0 -17 125 0
1.0 9 -50 0
1.0 -76 113 0
1.0 130 -121 0
1.0 -84 -70 0
1.0 -94 -127 0
1.0 -29 119 0
1.0 -132 77 0
1.0 61 50 0
1.0 100 78 0
1.0 -51 15 0
1.0 136 -109 0
1.0 39 -140 0
1.0 -126 100 0
1.0 79 113 0
1.0 -49 -101 0
1.0 10 -88 0
1.0 26 -76 0
1.0 -91 -81 0
1.0 50 -136 0
1.0 -136 -34 0
1.0 -134 -62 0
1.0 35 -21 0
1.0 121 -78 0
1.0 -26 90 0
1.0 -26 -104 0
1.0 44 -101 0
1.0 97 -86 0
1.0 -120 -121 0
1.0 43 -67 0
1.0 87 44 0
1.0 122 73 0
1.0 23 17 0
1.0 121 42 0
1.0 -3 -84 0
1.0 30 18 0
1.0 -139 122 0
1.0 -49 -24 0
1.0 67 139 0
1.0 71 -120 0
1.0 137 -111 0
1.0 13 24 0
1.0 -107 -117 0
1.0 135 -23 0
1.0 5 125 0
1.0 8 -12 0
1.0 -11 -111 0
1.0 91 -37 0
1.0 7 35 0
1.0 58 64 0
1.0 41 6 0
1.0 29 25 0
1.0 -9 62 0
1.0 -74 -136 0
1.0 107 73 0
1.0 109 -59 0
1.0 -93 68 0
1.0 132 27 0
1.0 33 54 0
1.0 -79 -94 0
1.0 -16 -43 0
1.0 39 53 0
1.0 125 -57 0
1.0 115 68 0
1.0 -136 -63 0
1.0 89 -110 0
1.0 24 -86 0
1.0 40 139 0
1.0 42 -11 0
1.0 -64 36 0
1.0 93 9 0
1.0 -76 -70 0
1.0 132 -71 0
1.0 41 77 0
1.0 22 105 0
1.0 -104 75 0
1.0 -85 119 0
1.0 15 -30 0
1.0 38 -57 0
1.0 126 -29 0
1.0 99 -103 0
1.0 39 119 0
1.0 -83 89 0
1.0 23 -97 0
1.0 -75 -135 0
1.0 25 31 0
1.0 87 -90 0
1.0 118 -81 0
1.0 -43 -106 0
1.0 84 139 0
1.0 -87 -124 0
1.0 -80 124 0
1.0 -119 52 0
1.0 83 18 0
1.0 -108 -101 0
1.0 41 -11 0
1.0 117 97 0
1.0 -95 28 0
1.0 11 -20 0
1.0 -3 -88 0
1.0 -140 -67 0
1.0 -84 49 0
1.0 -9 73 0
1.0 -83 18 0
1.0 -115 19 0
1.0 -46 67 0
1.0 87 -122 0
1.0 -69 109 0
1.0 35 -54 0
1.0 102 -121 0
1.0 53 -27 0
1.0 44 14 0
1.0 -32 -34 0
1.0 -101 57 0
1.0 -39 -138 0
1.0 107 67 0
1.0 -120 -45 0
1.0 25 -10 0
1.0 -36 -74 0
1.0 -87 -127 0
1.0 20 -44 0
1.0 101 -48 0
1.0 -45 23 0
1.0 89 1 0
1.0 45 132 0
1.0 2 63 0
1.0 -136 -79 0
1.0 65 -75 0
1.0 118 -116 0
1.0 -23 90 0
1.0 -112 43 0
1.0 -43 -90 0
1.0 82 -138 0
1.0 -60 23 0
1.0 -101 98 0
1.0 -33 58 0
1.0 -33 32 0
1.0 -122 -26 0
1.0 68 -61 0
1.0 10 -1 0
1.0 139 73 0
1.0 -95 17 0
1.0 -115 111 0
1.0 28 49 0
1.0 -81 105 0
1.0 131 98 0
1.0 18 28 0
1.0 -29 84 0
1.0 -17 -15 0
1.0 31 58 0
1.0 28 107 0
1.0 -15 -28 0
1.0 133 -92 0
1.0 50 31 0
1.0 -59 -67 0
1.0 -11 74 0
1.0 -89 -58 0
1.0 -115 25 0
1.0 131 135 0
1.0 -22 34 0
1.0 -126 117 0
1.0 -8 37 0
1.0 104 -56 0
1.0 130 -125 0
1.0 42 139 0
1.0 23 40 0
1.0 35 77 0
1.0 -110 -119 0
1.0 -95 -68 0
1.0 104 92 0
1.0 8 -40 0
1.0 -25 42 0
1.0 -41 131 0
1.0 -31 102 0
1.0 -38 95 0
1.0 -74 53 0
1.0 -120 -94 0
1.0 45 18 0
1.0 58 -52 0
1.0 94 -124 0
1.0 115 93 0
1.0 54 -134 0
1.0 -89 52 0
1.0 104 -62 0
1.0 15 40 0
1.0 -58 -37 0
1.0 89 21 0
1.0 5 -68 0
1.0 -20 -94 0
1.0 87 54 0
1.0 105 123 0
1.0 44 106 0
1.0 -5 37 0
1.0 73 89 0
1.0 110 -96 0
1.0 -23 100 0
1.0 -53 -76 0
1.0 129 -139 0
1.0 121 89 0
1.0 -54 31 0
1.0 -68 59 0
1.0 8 -19 0
1.0 -114 -85 0
1.0 44 -43 0
1.0 -118 -13 0
1.0 11 -128 0
1.0 76 -79 0
1.0 110 98 0
1.0 16 29 0
1.0 47 59 0
1.0 3 91 0
1.0 133 -55 0
1.0 -67 -97 0
1.0 84 133 0
1.0 72 85 0
1.0 -42 57 0
1.0 -86 -114 0
1.0 32 82 0
1.0 -32 28 0
1.0 83 133 0
1.0 -68 87 0
1.0 -16 -2 0
1.0 11 33 0
1.0 110 -61 0
1.0 -2 -4 0
1.0 -16 10 0
1.0 -91 138 0
1.0 -131 134 0
1.0 -81 -54 0
1.0 55 111 0
1.0 -4 -60 0
1.0 120 -4 0
1.0 7 31 0
1.0 41 -38 0
1.0 36 50 0
1.0 -44 -95 0
1.0 -8 63 0
1.0 -34 138 0
1.0 57 119 0
1.0 122 -65 0
1.0 96 -81 0
1.0 -119 75 0
1.0 125 10 0
1.0 105 -123 0
1.0 46 -93 0
1.0 -90 21 0
1.0 139 -125 0
1.0 -50 61 0
1.0 2 -119 0
1.0 -54 129 0
1.0 139 -33 0
1.0 -16 79 0
1.0 -31 -109 0
1.0 -130 -116 0
1.0 -101 31 0
1.0 91 -77 0
1.0 -55 -18 0
1.0 7 66 0
1.0 -99 -73 0
1.0 11 42 0
1.0 11 -34 0
1.0 -10 128 0
1.0 -96 120 0
1.0 -136 84 0
1.0 16 -54 0
1.0 60 -25 0
1.0 132 13 0
1.0 47 -44 0
1.0 -66 -44 0
1.0 -31 -60 0
1.0 40 107 0
1.0 50 103 0
1.0 16 -69 0
1.0 93 -47 0
1.0 -60 -69 0
1.0 113 22 0
1.0 -65 -138 0
1.0 -57 -90 0
1.0 -56 -99 0
1.0 62 -42 0
1.0 110 39 0
1.0 86 79 0
1.0 -8 -125 0
1.0 6 -19 0
1.0 16 -132 0
1.0 81 -108 0
1.0 -67 -22 0
1.0 63 133 0
1.0 -31 -77 0
1.0 -16 102 0
1.0 87 -92 0
1.0 111 -20 0
1.0 11 -49 0
1.0 -17 -88 0
1.0 109 48 0
1.0 40 -134 0
1.0 70 -18 0
1.0 -120 27 0
1.0 119 -110 0
1.0 -130 41 0
1.0 -89 -133 0
1.0 81 38 0
1.0 -86 -118 0
1.0 112 4 0
1.0 -21 102 0
1.0 128 -93 0
1.0 63 83 0
1.0 123 -129 0
1.0 122 3 0
1.0 -41 -86 0
1.0 -63 51 0
1.0 -54 -26 0
1.0 -128 -61 0
1.0 -14 -140 0
1.0 -83 136 0
1.0 -125 -39 0
1.0 41 -34 0
1.0 120 137 0
1.0 -47 -37 0
1.0 63 11 0
1.0 71 -108 0
1.0 108 107 0
1.0 -102 -6 0
1.0 45 -112 0
1.0 6 -78 0
1.0 74 -93 0
1.0 -129 103 0
1.0 -113 115 0
1.0 -83 126 0
1.0 -92 5 0
1.0 -11 75 0
1.0 -46 51 0
1.0 128 27 0
1.0 119 -64 0
1.0 26 -123 0
1.0 98 120 0
1.0 -105 27 0
1.0 -32 49 0
1.0 -123 111 0
1.0 -21 97 0
1.0 -123 -117 0
1.0 40 114 0
1.0 96 87 0
1.0 -66 103 0
1.0 -130 42 0
1.0 90 -58 0
1.0 -28 20 0
1.0 116 -40 0
1.0 17 128 0
1.0 -101 128 0
1.0 -74 -43 0
1.0 6 -62 0
1.0 103 117 0
1.0 -35 78 0
1.0 -98 -84 0
1.0 124 -28 0
1.0 16 -92 0
1.0 80 36 0
1.0 78 -3 0
1.0 -65 43 0
1.0 -19 93 0
1.0 -31 -63 0
1.0 7 -86 0
1.0 -114 -93 0
1.0 -45 -106 0
1.0 139 137 0
1.0 9 101 0
1.0 39 -92 0
1.0 31 -123 0
1.0 -98 10 0
1.0 71 89 0
1.0 79 -6 0
1.0 111 -51 0
1.0 -47 81 0
1.0 -42 -34 0
1.0 -126 36 0
1.0 -18 -93 0
1.0 103 69 0
1.0 18 -36 0
1.0 -42 124 0
1.0 -34 -2 0
1.0 -82 -91 0
1.0 125 -101 0
1.0 -136 134 0
1.0 -87 95 0
1.0 -23 8 0
1.0 -43 -138 0
1.0 -122 75 0
1.0 -76 77 0
1.0 28 89 0
1.0 -50 64 0
1.0 57 107 0
1.0 62 -47 0
1.0 -54 -135 0
1.0 133 -120 0
1.0 -54 -136 0
1.0 73 -82 0
1.0 -31 -7 0
1.0 -70 -93 0
1.0 -59 -43 0
1.0 90 43 0
1.0 -37 48 0
1.0 28 -139 0
1.0 134 130 0
1.0 71 -76 0
1.0 83 138 0
1.0 -90 27 0
1.0 -70 129 0
1.0 32 53 0
1.0 -100 -120 0
1.0 118 -98 0
1.0 88 138 0
1.0 -74 64 0
1.0 61 22 0
1.0 49 -28 0
1.0 -17 6 0
1.0 -58 17 0
1.0 136 -73 0
1.0 -30 -73 0
1.0 -71 122 0
1.0 46 -115 0
1.0 -137 50 0
1.0 78 -133 0
1.0 139 18 0
1.0 -35 118 0
1.0 50 -79 0
1.0 12 -88 0
1.0 -70 -52 0
1.0 -27 109 0
1.0 19 -56 0
1.0 49 89 0
1.0 -106 53 0
1.0 31 -38 0
1.0 116 -34 0
1.0 122 77 0
1.0 129 17 0
1.0 126 106 0
1.0 -22 105 0
1.0 -53 10 0
1.0 62 -81 0
1.0 118 -49 0
1.0 -82 52 0
1.0 -129 -10 0
1.0 -27 139 0
1.0 105 -30 0
1.0 134 115 0
1.0 125 33 0
1.0 -113 -83 0
1.0 131 -30 0
1.0 -81 123 0
1.0 133 110 0
1.0 109 -39 0
1.0 68 46 0
1.0 -21 115 0
1.0 7 -32 0
1.0 114 -48 0
1.0 77 112 0
1.0 -95 -33 0
1.0 -2 -134 0
1.0 33 -137 0
1.0 43 102 0
1.0 76 -129 0
1.0 20 -118 0
1.0 -26 -131 0
1.0 -103 134 0
1.0 27 68 0
1.0 -62 -111 0
1.0 107 41 0
1.0 -2 -76 0
1.0 64 -140 0
1.0 -118 81 0
1.0 -71 33 0
1.0 -26 87 0
1.0 -14 -95 0
1.0 66 79 0
1.0 120 -83 0
1.0 19 -114 0
1.0 113 -78 0
1.0 -18 -100 0
1.0 -132 60 0
1.0 7 73 0
1.0 -28 -10 0
1.0 -88 125 0
1.0 68 -26 0
1.0 139 -107 0
1.0 45 51 0
1.0 11 17 0
1.0 77 -133 0
1.0 -66 -89 0
1.0 98 58 0
1.0 -42 -31 0
1.0 56 21 0
1.0 128 82 0
1.0 -133 89 0
1.0 105 -5 0
1.0 24 -123 0
1.0 85 116 0
1.0 22 115 0
1.0 -87 -14 0
1.0 -69 23 0
1.0 49 -127 0
1.0 -81 6 0
1.0 11 2 0
1.0 125 24 0
1.0 -140 75 0
1.0 -49 -116 0
1.0 -129 41 0
1.0 63 -59 0
1.0 -46 -71 0
1.0 76 -70 0
1.0 -71 32 0
1.0 -56 126 0
1.0 -61 -56 0
1.0 -32 8 0
1.0 -49 -69 0
1.0 -127 4 0
1.0 74 51 0
1.0 -120 50 0
1.0 -82 -77 0
1.0 63 -91 0
1.0 -7 127 0
1.0 135 57 0
1.0 125 -135 0
1.0 139 -97 0
1.0 -8 -24 0
1.0 73 39 0
1.0 116 5 0
1.0 96 -62 0
1.0 49 114 0
1.0 -30 59 0
1.0 -53 99 0
1.0 -55 132 0
1.0 15 -67 0
1.0 -105 -87 0
1.0 -91 113 0
1.0 35 -140 0
1.0 -113 8 0
1.0 66 -70 0
1.0 28 -5 0
1.0 136 14 0
1.0 -80 54 0
1.0 -140 -61 0
1.0 -33 103 0
1.0 102 -4 0
1.0 -12 -135 0
1.0 64 -94 0
1.0 99 -86 0
1.0 -99 38 0
1.0 -92 -64 0
1.0 124 68 0
1.0 -31 -38 0
1.0 41 94 0
1.0 -88 4 0
1.0 -97 44 0
1.0 129 -136 0
1.0 -34 -114 0
1.0 -37 70 0
1.0 138 117 0
1.0 14 120 0
1.0 -74 87 0
1.0 90 95 0
1.0 -139 -134 0
1.0 -130 111 0
1.0 84 -62 0
1.0 132 -84 0
1.0 61 -37 0
1.0 -17 -38 0
1.0 -124 -95 0
1.0 -50 3 0
1.0 136 -81 0
1.0 52 -110 0
1.0 -32 17 0
1.0 100 116 0
1.0 -13 30 0
1.0 -67 83 0
1.0 -38 -90 0
1.0 -92 -103 0
1.0 -44 -29 0
1.0 -139 82 0
1.0 98 65 0
1.0 -41 65 0
1.0 -94 31 0
1.0 -114 61 0
1.0 -10 -53 0
1.0 16 93 0
1.0 -122 13 0
1.0 102 10 0
1.0 62 -77 0
1.0 -14 120 0
1.0 61 -101 0
1.0 -31 -30 0
1.0 -128 -93 0
1.0 1 -17 0
1.0 30 -43 0
1.0 52 -64 0
1.0 -140 85 0
1.0 64 -41 0
1.0 -1 75 0
1.0 -104 -97 0
1.0 49 73 0
1.0 90 -95 0
1.0 -137 76 0
1.0 140 -129 0
1.0 74 -122 0
1.0 -22 70 0
1.0 5 -88 0
1.0 45 -27 0
1.0 99 92 0
1.0 46 35 0
1.0 -111 -138 0
1.0 -127 112 0
1.0 93 -123 0
1.0 -53 39 0
1.0 127 49 0
1.0 -75 84 0
1.0 -36 -128 0
1.0 -23 -109 0
1.0 -107 -73 0
1.0 45 -74 0
1.0 -56 -69 0
1.0 -108 24 0
1.0 -48 -125 0
1.0 109 -124 0
1.0 -65 109 0
1.0 -92 112 0
1.0 75 92 0
1.0 104 66 0
1.0 -37 31 0
1.0 55 -94 0
1.0 -78 110 0
1.0 94 121 0
1.0 89 121 0
1.0 92 51 0
1.0 2 -133 0
1.0 -58 -96 0
1.0 -127 137 0
1.0 90 118 0
1.0 -87 97 0
1.0 78 76 0
1.0 57 109 0
1.0 19 131 0
1.0 -124 67 0
1.0 -22 123 0
1.0 120 94 0
1.0 -71 52 0
1.0 9 -30 0
1.0 -106 115 0
1.0 84 -40 0
1.0 -31 62 0
1.0 128 108 0
1.0 91 51 0
1.0 -5 -67 0
1.0 -119 -94 0
1.0 -124 -10 0
1.0 -125 46 0
1.0 86 -138 0
1.0 -60 12 0
1.0 120 47 0
1.0 -97 -75 0
1.0 2 -137 0
1.0 -91 -128 0
1.0 138 -39 0
1.0 85 131 0
1.0 129 78 0
1.0 -90 138 0
1.0 -44 13 0
1.0 -87 -138 0
1.0 134 -138 0
1.0 126 -33 0
1.0 -72 39 0
1.0 30 12 0
1.0 90 52 0
1.0 -49 -22 0
1.0 -34 -108 0
1.0 105 -55 0
1.0 52 136 0
1.0 28 -58 0
1.0 -97 -123 0
1.0 135 -20 0
1.0 -71 -70 0
1.0 -91 -92 0
1.0 -59 25 0
1.0 -79 -34 0
1.0 29 23 0
1.0 80 47 0
1.0 30 130 0
1.0 -9 -25 0
1.0 95 90 0
1.0 42 -131 0
1.0 -16 -134 0
1.0 -27 105 0
1.0 -127 113 0
1.0 -19 128 0
1.0 -117 -125 0
1.0 10 -38 0
1.0 128 124 0
1.0 -115 -38 0
1.0 -31 114 0
1.0 -79 29 0
1.0 -1 86 0
1.0 73 96 0
1.0 80 -138 0
1.0 36 100 0
1.0 84 61 0
1.0 99 -43 0
1.0 16 -132 0
1.0 20 21 0
1.0 106 12 0
1.0 -108 107 0
1.0 -105 -122 0
1.0 82 49 0
1.0 -110 75 0
1.0 117 -132 0
1.0 -124 105 0
1.0 125 -107 0
1.0 -119 -63 0
1.0 -29 -74 0
1.0 -56 -129 0
1.0 38 15 0
1.0 -90 107 0
1.0 99 -133 0
1.0 -97 -6 0
1.0 112 -109 0
1.0 31 18 0
1.0 92 28 0
1.0 17 45 0
1.0 60 27 0
1.0 -134 -138 0
1.0 130 -134 0
1.0 140 -118 0
1.0 86 -58 0
1.0 76 97 0
1.0 125 88 0
1.0 133 38 0
1.0 65 117 0
1.0 114 -136 0
1.0 130 -42 0
1.0 -20 -78 0
1.0 -136 -20 0
1.0 -116 -117 0
1.0 -65 131 0
1.0 -29 -16 0
1.0 132 -29 0
1.0 24 20 0
1.0 62 -120 0
1.0 58 101 0
1.0 -120 -127 0
1.0 104 81 0
1.0 -72 -17 0
1.0 32 52 0
1.0 -81 -64 0
1.0 -84 59 0
1.0 -39 -119 0
1.0 79 132 0
1.0 118 -133 0
1.0 -74 70 0
1.0 -86 -53 0
1.0 105 18 0
1.0 82 131 0
1.0 49 -127 0
1.0 105 116 0
1.0 -107 -54 0
1.0 46 -116 0
1.0 -46 -134 0
1.0 -47 90 0
1.0 107 110 0
1.0 -100 65 0
1.0 -51 104 0
1.0 79 140 0
1.0 -54 -20 0
1.0 -136 15 0
1.0 8 63 0
1.0 12 -1 0
1.0 111 120 0
1.0 -44 -101 0
1.0 -65 34 0
1.0 34 -27 0
1.0 46 38 0
1.0 -52 124 0
1.0 -47 114 0
1.0 115 -39 0
1.0 19 63 0
1.0 24 -92 0
1.0 126 91 0
1.0 140 107 0
1.0 -13 -99 0
1.0 41 9 0
1.0 -122 101 0
1.0 137 73 0
1.0 -87 102 0
1.0 118 -31 0
1.0 -122 -44 0
1.0 11 33 0
1.0 131 106 0
1.0 114 -62 0
1.0 -22 34 0
1.0 -106 15 0
1.0 -116 -20 0
1.0 50 114 0
1.0 18 30 0
1.0 62 29 0
1.0 -134 -70 0
1.0 132 129 0
1.0 22 -38 0
1.0 53 109 0
1.0 -128 129 0
1.0 103 -37 0
1.0 67 -81 0
1.0 109 -59 0
1.0 129 -125 0
1.0 -113 -131 0
1.0 -29 -25 0
1.0 -133 -21 0
1.0 10 -90 0
1.0 -127 87 0
1.0 28 -101 0
1.0 -20 82 0
1.0 -66 26 0
1.0 17 122 0
1.0 -7 -15 0
1.0 -35 96 0
1.0 46 139 0
1.0 -86 -109 0
1.0 -69 -125 0
1.0 -67 -65 0
1.0 91 -85 0
1.0 66 -65 0
1.0 -79 -140 0
1.0 96 52 0
1.0 50 -33 0
1.0 -2 117 0
1.0 102 75 0
1.0 140 -114 0
1.0 59 -52 0
1.0 116 72 0
1.0 71 128 0
1.0 39 -45 0
1.0 -78 -59 0
1.0 35 -51 0
1.0 126 -26 0
1.0 -140 44 0
1.0 95 -134 0
1.0 -65 -98 0
1.0 86 -12 0
1.0 -57 -49 0
1.0 -108 17 0
1.0 -67 81 0
1.0 107 -23 0
1.0 66 113 0
1.0 -106 66 0
1.0 24 -76 0
1.0 -87 49 0
1.0 -97 26 0
1.0 42 -70 0
1.0 11 -65 0
1.0 -87 57 0
1.0 29 -107 0
1.0 33 124 0
1.0 60 52 0
1.0 100 118 0
1.0 -3 7 0
1.0 76 -47 0
1.0 112 33 0
1.0 90 -5 0
1.0 -112 103 0
1.0 87 139 0
1.0 50 85 0
1.0 62 21 0
1.0 -27 -47 0
1.0 94 122 0
1.0 -15 -110 0
1.0 -115 -52 0
1.0 -15 -57 0
1.0 -55 -10 0
1.0 -95 119 0
1.0 -140 41 0
1.0 -88 51 0
1.0 -33 36 0
1.0 6 -87 0
1.0 139 95 0
1.0 -11 16 0
1.0 26 -82 0
1.0 -61 4 0
1.0 -45 -78 0
1.0 129 75 0
1.0 111 -137 0
1.0 -84 -79 0
1.0 -33 22 0
1.0 -37 70 0
1.0 12 -138 0
1.0 -2 39 0
1.0 117 -79 0
1.0 -14 -69 0
1.0 -66 52 0
1.0 -131 55 0
1.0 76 -46 0
1.0 116 -34 0
1.0 31 76 0
1.0 -115 -52 0
1.0 131 115 0
1.0 -44 -40 0
1.0 -92 -86 0
1.0 -1 -68 0
1.0 113 -30 0
1.0 -63 -82 0
1.0 -18 -134 0
1.0 -46 64 0
1.0 39 -137 0
1.0 37 -27 0
1.0 -112 -29 0
1.0 96 35 0
1.0 65 -95 0
1.0 -37 91 0
1.0 85 -68 0
1.0 131 127 0
1.0 -124 67 0
1.0 93 22 0
1.0 50 80 0
1.0 -115 84 0
1.0 38 -91 0
1.0 -42 -109 0
1.0 -36 33 0
1.0 20 4 0
1.0 70 26 0
1.0 -48 -33 0
1.0 -112 -122 0
1.0 -65 -37 0
1.0 127 12 0
1.0 120 25 0
1.0 57 -132 0
1.0 -135 97 0
1.0 -122 103 0
1.0 -136 -32 0
1.0 13 -89 0
1.0 126 -37 0
1.0 49 76 0
1.0 100 15 0
1.0 -6 86 0
1.0 42 33 0
1.0 136 -10 0
1.0 -41 39 0
1.0 -127 -9 0
1.0 -46 -30 0
1.0 -106 84 0
1.0 -99 -26 0
1.0 -111 36 0
1.0 68 28 0
1.0 38 -88 0
1.0 -126 -10 0
1.0 -18 123 0
1.0 13 -29 0
1.0 113 -140 0
1.0 25 -126 0
1.0 22 -139 0
1.0 27 43 0
1.0 131 -64 0
1.0 -73 -136 0
1.0 118 -34 0
1.0 -63 32 0
1.0 -31 12 0
1.0 138 2 0
1.0 -1 59 0
1.0 -102 -119 0
1.0 42 -95 0
1.0 90 17 0
1.0 51 -81 0
1.0 112 26 0
1.0 37 115 0
1.0 117 -110 0
1.0 28 -20 0
1.0 -139 96 0
1.0 51 8 0
1.0 24 -81 0
1.0 21 -126 0
1.0 -12 56 0
1.0 -31 54 0
1.0 -23 136 0
1.0 15 128 0
1.0 84 -118 0
1.0 -126 69 0
1.0 -10 64 0
1.0 50 130 0
1.0 -46 -18 0
1.0 -71 -52 0
1.0 47 66 0
1.0 -54 -41 0
1.0 -19 128 0
1.0 56 128 0
1.0 -51 -96 0
1.0 86 -119 0
1.0 137 131 0
1.0 42 -8 0
1.0 74 -23 0
1.0 -64 -83 0
1.0 -71 -116 0
1.0 103 99 0
1.0 -54 -7 0
1.0 -125 -136 0
1.0 126 56 0
1.0 -63 -69 0
1.0 -91 123 0
1.0 -66 -107 0
1.0 -83 41 0
1.0 140 33 0
1.0 39 33 0
1.0 28 41 0
1.0 96 54 0
1.0 122 -15 0
1.0 -137 139 0
1.0 106 42 0
1.0 -83 -38 0
1.0 -71 -11 0
1.0 -44 -46 0
1.0 -87 138 0
1.0 52 125 0
1.0 -139 -77 0
1.0 75 52 0
1.0 -93 114 0
1.0 -12 -40 0
1.0 51 -112 0
1.0 18 -45 0
1.0 43 -109 0
1.0 -93 -69 0
1.0 -5 -91 0
1.0 -3 -4 0
1.0 -118 -66 0
1.0 -106 109 0
1.0 -80 -123 0
1.0 27 133 0
1.0 102 69 0
1.0 137 8 0
1.0 -99 -92 0
1.0 95 -60 0
1.0 126 -47 0
1.0 -16 -133 0
1.0 116 75 0
1.0 -68 115 0
1.0 -43 93 0
1.0 100 88 0
1.0 40 -121 0
1.0 41 76 0
1.0 -123 -128 0
1.0 -121 -82 0
1.0 -17 -5 0
1.0 -119 28 0
1.0 120 -57 0
1.0 -5 101 0
1.0 82 -17 0
1.0 93 -104 0
1.0 -91 -124 0
1.0 65 -25 0
1.0 30 123 0
1.0 10 -140 0
1.0 56 90 0
1.0 -51 -66 0
1.0 -83 1 0
1.0 -105 122 0
1.0 -105 41 0
1.0 -66 -12 0
1.0 -135 137 0
1.0 -136 132 0
1.0 -81 -61 0
1.0 -127 75 0
1.0 -76 99 0
1.0 -80 72 0
1.0 -113 81 0
1.0 -92 -45 0
1.0 -42 94 0
1.0 -85 84 0
1.0 5 -61 0
1.0 136 -1 0
1.0 -99 22 0
1.0 -94 65 0
1.0 -5 -18 0
1.0 62 -95 0
1.0 49 -134 0
1.0 77 -91 0
1.0 -12 36 0
1.0 -36 -130 0
1.0 11 -48 0
1.0 113 -117 0
1.0 -134 133 0
1.0 87 -117 0
1.0 -111 21 0
1.0 -111 -6 0
1.0 -42 -58 0
1.0 -47 67 0
1.0 115 -106 0
1.0 82 -51 0
1.0 -43 -139 0
1.0 -116 -10 0
1.0 -30 113 0
1.0 -118 119 0
1.0 -37 -111 0
1.0 38 28 0
1.0 -133 -23 0
1.0 74 -23 0
1.0 -22 -140 0
1.0 -9 91 0
1.0 63 76 0
1.0 55 -21 0
1.0 132 16 0
1.0 44 35 0
1.0 -58 -139 0
1.0 -22 121 0
1.0 120 -74 0
1.0 25 -124 0
1.0 -59 -65 0
1.0 86 -48 0
1.0 -64 -98 0
1.0 133 7 0
1.0 5 116 0
1.0 96 -9 0
1.0 83 -110 0
1.0 93 90 0
1.0 -14 -42 0
1.0 90 49 0
1.0 -7 -3 0
1.0 9 124 0
1.0 99 90 0
1.0 -99 108 0
1.0 77 53 0
1.0 2 63 0
1.0 -105 27 0
1.0 76 -11 0
1.0 -13 47 0
1.0 30 -129 0
1.0 78 72 0
1.0 -40 -33 0
1.0 85 -87 0
1.0 -9 -48 0
1.0 75 -28 0
1.0 -94 -91 0
1.0 31 118 0
1.0 -11 -19 0
1.0 -62 -133 0
1.0 71 99 0
1.0 105 125 0
1.0 -86 139 0
1.0 -26 -97 0
1.0 -47 -63 0
1.0 -41 10 0
1.0 -29 -51 0
1.0 44 -116 0
1.0 -75 84 0
1.0 68 16 0
1.0 14 139 0
1.0 95 140 0
1.0 -63 -139 0
1.0 8 33 0
1.0 -84 -7 0
1.0 -123 31 0
1.0 -114 91 0
1.0 106 -7 0
1.0 6 -89 0
1.0 -89 37 0
1.0 -36 40 0
1.0 -72 127 0
1.0 134 -64 0
1.0 95 103 0
1.0 -53 127 0
1.0 -134 -24 0
1.0 -113 15 0
1.0 -52 -61 0
1.0 -101 46 0
1.0 32 68 0
1.0 132 -50 0
1.0 13 32 0
1.0 -19 122 0
1.0 6 -80 0
1.0 95 112 0
1.0 -33 -111 0
1.0 16 83 0
1.0 -11 73 0
1.0 -122 -73 0
1.0 105 -101 0
1.0 -82 -2 0
1.0 82 8 0
1.0 119 104 0
1.0 74 -136 0
1.0 -79 -29 0
1.0 -101 -70 0
1.0 -2 -38 0
1.0 -138 -135 0
1.0 136 -85 0
1.0 -93 -92 0
1.0 -56 -16 0
1.0 -11 -86 0
1.0 114 -76 0
1.0 5 128 0
1.0 -26 92 0
1.0 -86 -62 0
1.0 6 -131 0
1.0 82 -132 0
1.0 -7 111 0
1.0 -56 65 0
1.0 -1 4 0
1.0 132 119 0
